20
5
2005101
0
0
68 73 71 63 65 
1
0
22 29 26 23 22 
2
0
47 51 44 44 47 
3
0
15 16 17 17 11 
4
0
12 17 14 15 18 
5
0
20 27 21 25 27 
6
0
25 21 31 31 27 
7
0
15 15 15 13 10 
8
0
13 8 8 11 14 
9
0
59 57 57 52 58 
10
0
77 79 76 74 75 
11
0
62 56 59 59 64 
12
0
92 89 98 98 94 
13
0
11 5 4 5 6 
14
0
19 23 21 29 18 
15
0
28 26 33 31 31 
16
0
60 54 53 59 57 
17
0
74 74 80 79 74 
18
0
92 91 85 88 88 
19
0
89 84 87 91 93 
